problems/csplib-prob015/SchursLemma-models/noch/O2/lingeling/model_1_2-5-15-solution000001.eprime-solution
language ESSENCE' 1.0

letting boxes_PartitionAsSet_ExplicitR6_ExplicitVarSizeWithDummy be
        [[1, 4, 6, 11, 13, 16, 16, 16, 16, 16, 16, 16, 16, 16, 16; int(1..15)],
         [2, 3, 16, 16, 16, 16, 16, 16, 16, 16, 16, 16, 16, 16, 16; int(1..15)],
         [5, 16, 16, 16, 16, 16, 16, 16, 16, 16, 16, 16, 16, 16, 16; int(1..15)],
         [7, 12, 16, 16, 16, 16, 16, 16, 16, 16, 16, 16, 16, 16, 16; int(1..15)],
         [8, 9, 10, 14, 15, 16, 16, 16, 16, 16, 16, 16, 16, 16, 16; int(1..15)]; int(1..5)]
