problems/csplib-prob015/SchursLemma-models/noch/O2/lingeling/model_1_2-5-15-solution000001.solution
language Essence 1.3

letting boxes be partition({1, 4, 6, 11, 13}, {2, 3}, {5}, {7, 12}, {8, 9, 10, 14, 15})
